r = [
0,115,106,99,87,132,47,117,9,48,60,0
];
p = [
0,12,10,15,21,10,30,19,8,4,18,0
];
e = [
0,7,17,11,10,3,4,4,13,11,19,0
];
d = [
0,134,120,114,108,151,77,138,19,60,80,152
];
d_bar = [
0,135,121,116,110,152,80,140,20,61,82,152
];
w = [
0,7,17,5.5,5,3,1.333333333,2,13,11,9.5,0
];
